#---------------Graphene equilibrium---------------#
# Author: Shenru Wang
# Beihang University
# srwang@buaa.edu.cn
#--------------------------------------------------#

#------------------Description---------------------#
# The graphene model was equilibrated at 300K with
# the NVE ensemble for 100 ps, followed by the NVT
# ensemble for 1ns.

# This graphene model has five layers.

# This is a LAMMPS code.
# All the detailed descriptions of the commands involved in this code
# can be found in the LAMMPS website.
#--------------------------------------------------#

#-----------------Initialization-------------------#
# use "real" unit and simulate in 3d dimension
units 		      real
dimension 	   3
atom_style    full 

# periodic boundary condition in 3d dimensions
boundary 	    p p p

# pairwise neighbor list setting
neighbor 		   2.0 bin
neigh_modify  every 1 delay 0 check yes

#-----------------Potential parameters-------------#
# set "airebo" potential for graphene model
pair_style		  airebo 2.0

# read the graphene model
read_data		   graphene.data

# give potential parameters for "airebo" potential
pair_coeff 	  * * CH.airebo C
 
#----------------Thermodynamic data----------------#
thermo_style	 custom step time temp pe ke etotal density press pxx pyy pzz vol lx ly lz
thermo		      100

#----------------Energy minimization---------------#
dump		        1 all atom 100 mini.xyz
min_style     cg
minimize		    1e-13 1e-6 10000 10000
undump		      1
reset_timestep 0

#-------------Temperature initialization-----------#
velocity 		all create 300.0 1231

#--------NVE----------#
# NVE for 100ps
dump		        1 all atom 100 nve.xyz
fix           1 all nve
fix           2 all temp/berendsen 300 300 10
run		         100000

write_restart  restart.nve
undump		      1
unfix 		      1
unfix 		      2
reset_timestep	0

#--------NVT----------#
# NVT for 1ns
dump		        1 all atom 1000 nvt.xyz
fix           1 all nvt temp 300 300 100 
run		         1000000

write_restart 	restart.nvt
write_data	    Graphene.data
